91, 929
865, 50
952, 15
684, 44
398, 48
468, 29
391, 22
317, 1
992, 85
621, 67
535, 26
1194, 54
261, 24
1098, 65
1135, 53
617, 75
910, 27
337, 73
762, 73
1114, 19
396, 87
265, 49
1205, 20
338, 31
1029, 78
926, 12
996, 31
793, 34
1182, 43
968, 21
1036, 88
857, 33
548, 90
287, 31
610, 91
1210, 57
963, 29
709, 97
1006, 4
561, 4
374, 30
671, 93
870, 48
857, 64
610, 67
906, 31
397, 87
1048, 10
1065, 100
574, 96
926, 25
1129, 51
724, 78
822, 43
807, 90
1192, 57
757, 87
266, 33
793, 83
982, 41
311, 80
694, 13
1159, 56
702, 14
1027, 74
718, 93
677, 24
424, 8
972, 37
992, 25
658, 86
761, 15
290, 69
254, 92
825, 4
855, 19
975, 58
355, 50
343, 98
257, 49
518, 51
1126, 13
1205, 21
1129, 40
621, 46
815, 35
806, 41
970, 50
931, 30
870, 10
799, 40
485, 21